(set-info :source |printed by MathSAT|)
(declare-fun ldv_mutex () (_ BitVec 32))

*:
(assert (let ((.def_15478 (= ldv_mutex (_ bv1 32)))).def_15478))
(assert (let ((.def_15483 (= ldv_mutex (_ bv2 32)))).def_15483))

